1 -1 2 0
1 3 4 0
1 3 5 0
1 4 6 0
1 -4 7 0
1 2 8 0
1 7 9 0
1 -7 10 0
1 7 -1 0
1 11 -12 0
1 11 -13 0
1 -11 -14 0
1 15 4 0
1 -15 16 0
1 -15 17 0
1 15 -1 0
1 -18 10 0
1 -18 -19 0
1 -18 17 0
1 10 20 0
1 -10 -2 0
1 -10 5 0
1 -10 7 0
1 -21 6 0
1 21 9 0
1 21 -22 0
1 21 7 0
1 5 9 0
1 5 -10 0
1 -5 -18 0
1 5 23 0
1 -6 -24 0
1 -6 25 0
1 -6 -26 0
1 -6 -5 0
1 -6 18 0
1 -19 4 0
1 19 18 0
1 27 -10 0
1 27 -4 0
1 -27 19 0
1 27 3 0
1 -28 -25 0
1 -25 29 0
1 -26 30 0
1 -26 -31 0
1 24 -22 0
1 32 -25 0
1 -32 26 0
1 -30 -24 0
1 -22 21 0
1 -22 23 0
1 -29 33 0
1 29 26 0
1 -29 -23 0
1 -17 -34 0
1 -17 35 0
1 -20 36 0
1 20 -11 0
1 20 37 0
1 20 17 0
1 38 21 0
1 38 35 0
1 38 39 0
1 -12 -39 0
1 12 40 0
1 -36 41 0
1 36 -16 0
1 36 38 0
1 -35 16 0
1 35 -17 0
1 -34 37 0
1 34 17 0
1 37 38 0
1 16 11 0
1 16 35 0
1 16 -7 0
1 -41 27 0
1 31 -35 0
1 31 -42 0
1 43 24 0
1 -43 -27 0
1 43 44 0
1 43 19 0
1 -43 -31 0
1 -43 35 0
1 -45 38 0
1 40 43 0
1 40 12 0
1 -40 -33 0
1 -40 -38 0
1 40 -46 0
1 44 16 0
1 -44 38 0
1 39 -12 0
1 47 48 0
1 47 -27 0
1 -47 -14 0
1 47 42 0
1 -23 29 0
1 23 19 0
1 33 29 0
1 -33 -45 0
1 -46 29 0
1 46 22 0
1 8 43 0
1 -8 -23 0
1 -48 -7 0
1 14 -43 0
1 -14 -33 0
1 -14 -11 0
1 -42 33 0
1 42 -31 0
1 42 15 0
